36 36
23
3 3   0 8 
3 4   7 0 
3 5   16 17
3 6   7 15
3 7   16 0 
3 8   0 0 
3 9   4 11
3 10  16 7 
3 11  7 4 
3 12  10 0 
3 14  16 22
3 15  7 21
3 16  4 20
3 24  10 12
3 36  13 0 
4 3   0 33
4 11  3 0 
4 22  0 11
5 3   31 33
5 4   31 29
5 14  31 0 
5 15  31 14
12 36  19 0 
